400
[40,45,47,48,53,61,72,74,97,108,119,125,146,153,156,160,161,168,173,179,190,194,205,222,223,227,228,234,240,243,244,246,250,251,255,260,262,265,267,270,295,300,301,302,305,308,313,317,320]
[1,1,1,1,1,1,1,1,1,1,1,1,1,1,1,1,1,1,1,1,1,1,1,1,1,1,1,1,1,1,1,1,1,1,1,1,1,1,2,1,1,1,1,1,1,1,1,1,1]
